44906.7
48392.4
44906.7
44906.7
44906.7
40911
40911
40911
40911
39994.5
39994.5
39758.5
39758.5
39213.7
39213.7
42246.2
42246.2
42246.2
42246.2
38653.2
42246.2
40501
40385.5
38135.3
37653.9
37653.9
37653.9
37653.9
37082.8
37082.8
37082.8
37082.8
37082.8
37082.8
36588.9
36588.9
36588.9
36237.1
36237.1
36237.1
36205.3
36205.3
35882.1
35882.1
35882.1
35882.1
35815.7
35815.7
35815.7
35142
34898.6
34898.6
34898.6
34898.6
34898.6
34898.6
34492.2
34492.2
34492.2
34382.9
34382.9
34382.9
34044.4
34044.4
34044.4
34044.4
34044.4
34044.4
33910.4
33837.7
33826.1
33711.6
33711.6
33711.6
33706.5
33056.2
33056.2
33056.2
33056.2
33056.2
33056.2
33056.2
33056.2
33051.5
33051.5
33051.5
33051.5
33051.5
33045.2
32757.3
32757.3
32464
32464
32464
32464
32464
32464
32135.7
32135.7
32135.7
